     Program PWSCF v.6.6 starts on  8Sep2023 at 14:24:31

     K-points division:     npool     =       4
     R & G space division:  proc/nbgrp/npool/nimage =      14
     Fft bands division:     nmany     =       1
     Reading input from input.in
     Message from routine read_cards :
     DEPRECATED: no units specified in CELL_PARAMETERS card

     Current dimensions of program PWSCF are:
     Max number of different atomic species (ntypx) = 10
     Max number of k-points (npk) =  40000
     Max angular momentum in pseudopotentials (lmaxx) =  3
     Message from routine volume:
     axis vectors are left-handed

     Subspace diagonalization in iterative solution of the eigenvalue problem:
     a serial algorithm will be used

     Message from routine setup:
     using ibrav=0 with symmetry is DISCOURAGED, use correct ibrav instead

     bravais-lattice index     =            0
     lattice parameter (alat)  =       7.9000  a.u.
     unit-cell volume          =     986.0780 (a.u.)^3
     number of atoms/cell      =           16
     number of atomic types    =            4
     number of electrons       =       192.00
     number of Kohn-Sham states=          120
     kinetic-energy cutoff     =      80.0000  Ry
     charge density cutoff     =     320.0000  Ry
     convergence threshold     =      1.0E-08
     mixing beta               =       0.3000
     number of iterations used =            8  plain     mixing
     Exchange-correlation= PBE
                           (   1   4   3   4   0   0   0)

     celldm(1)=   7.900000  celldm(2)=   0.000000  celldm(3)=   0.000000
     celldm(4)=   0.000000  celldm(5)=   0.000000  celldm(6)=   0.000000

     crystal axes: (cart. coord. in units of alat)
               a(1) = (   1.000000   1.000000   0.000000 )
               a(2) = (   1.000000   0.000000   1.000000 )
               a(3) = (   0.000000   1.000000   1.000000 )

     reciprocal axes: (cart. coord. in units 2 pi/alat)
               b(1) = (  0.500000  0.500000 -0.500000 )
               b(2) = (  0.500000 -0.500000  0.500000 )
               b(3) = ( -0.500000  0.500000  0.500000 )

     PseudoPot. # 1 for Ni read from file:
     ../input/Ni_ONCV_PBE_fr.upf
     MD5 check sum: 1d6d985dc8681998a6b21bb9c8828dba
     Pseudo is Norm-conserving + core correction, Zval = 18.0
     Generated using ONCVPSP code by D. R. Hamann
     Using radial grid of 1372 points,  6 beta functions with:
                l(1) =   0
                l(2) =   0
                l(3) =   1
                l(4) =   1
                l(5) =   2
                l(6) =   2

[...]

     PseudoPot. # 3 for Ni read from file:
     ../input/Ni_ONCV_PBE_fr.upf
     MD5 check sum: 1d6d985dc8681998a6b21bb9c8828dba
     Pseudo is Norm-conserving + core correction, Zval = 18.0
     Generated using ONCVPSP code by D. R. Hamann
     Using radial grid of 1372 points,  6 beta functions with:
                l(1) =   0
                l(2) =   0
                l(3) =   1
                l(4) =   1
                l(5) =   2
                l(6) =   2

     PseudoPot. # 4 for O  read from file:
     ../input/O_ONCV_PBE_fr.upf
     MD5 check sum: cce762a7abf7b05e8b0c1bb572795511
     Pseudo is Norm-conserving + core correction, Zval =  6.0
     Generated using ONCVPSP code by D. R. Hamann
     Using radial grid of  936 points,  5 beta functions with:
                l(1) =   0
                l(2) =   0
                l(3) =   1
                l(4) =   1
                l(5) =   2

     atomic species   valence    mass     pseudopotential
        Ni1           18.00     1.00000     Ni( 1.00)
        Ni2           18.00     1.00000     Ni( 1.00)
        Ni3           18.00     1.00000     Ni( 1.00)
        O1             6.00     1.00000     O ( 1.00)

     Starting magnetic structure
     atomic species   magnetization
        Ni1          0.500
        Ni2          0.500
        Ni3         -0.500
        O1           0.000

     Simplified LDA+U calculation (l_max = 2) with parameters (eV):
     atomic species    L          U    alpha       J0     beta
        Ni1            2     0.0000   0.1000   0.0000   0.0000
        Ni2            2     0.0000   0.0000   0.0000   0.0000
        Ni3            2     0.0000   0.0000   0.0000   0.0000
        O1             1     0.0000   0.0000   0.0000   0.0000

     12 Sym. Ops., with inversion, found

   Cartesian axes

     site n.     atom                  positions (alat units)
         1           Ni1 tau(   1) = (   0.0000000   0.0000000   0.0000000  )
         2           Ni2 tau(   2) = (   1.0000000   0.5000000   0.5000000  )
         3           Ni2 tau(   3) = (   0.5000000   1.0000000   0.5000000  )
         4           Ni2 tau(   4) = (   0.5000000   0.5000000   1.0000000  )
         5           Ni3 tau(   5) = (   0.5000000   0.5000000   0.0000000  )
         6           Ni3 tau(   6) = (   0.5000000   0.0000000   0.5000000  )
         7           Ni3 tau(   7) = (   0.0000000   0.5000000   0.5000000  )
         8           Ni3 tau(   8) = (   1.0000000   1.0000000   1.0000000  )
         9           O1  tau(   9) = (   0.0000000   0.0000000   0.5000000  )
        10           O1  tau(  10) = (   0.5000000   0.5000000   0.5000000  )
        11           O1  tau(  11) = (   0.0000000   0.5000000   1.0000000  )
        12           O1  tau(  12) = (   0.5000000   0.0000000   1.0000000  )
        13           O1  tau(  13) = (   1.0000000   0.5000000   1.0000000  )
        14           O1  tau(  14) = (   0.5000000   1.0000000   1.0000000  )
        15           O1  tau(  15) = (   0.5000000   0.5000000   1.5000000  )
        16           O1  tau(  16) = (   1.0000000   1.0000000   1.5000000  )

     number of k points=     4  Gaussian smearing, width (Ry)=  0.0100
                       cart. coord. in units 2pi/alat
        k(    1) = (   0.0000000   0.0000000   0.0000000), wk =   0.1250000
        k(    2) = (   0.2500000  -0.2500000  -0.2500000), wk =   0.3750000
        k(    3) = (   0.0000000   0.0000000  -0.5000000), wk =   0.3750000
        k(    4) = (  -0.2500000  -0.2500000  -0.2500000), wk =   0.1250000

     The initial density is read from file :
     ./pwscf.save/charge-density

     Number of +U iterations with fixed ns =  0
     Starting occupations:
 --- enter write_ns ---
 LDA+U parameters:
U( 1)     =  0.00000000
alpha( 1) =  0.10000000
U( 2)     =  0.00000000
U( 3)     =  0.00000000
U( 4)     =  0.00000000
atom    1   Tr[ns(na)] (up, down, total) =   4.95331  3.64050  8.59382
   spin  1
    eigenvalues:
  0.983  0.983  0.996  0.996  0.996
    eigenvectors:
  0.001  0.999  0.000  0.000  0.000
  0.000  0.000  0.333  0.000  0.666
  0.000  0.000  0.333  0.489  0.178
  0.999  0.001  0.000  0.000  0.000
  0.000  0.000  0.333  0.511  0.156
    occupations:
  0.983 -0.000 -0.000  0.000 -0.000
 -0.000  0.996 -0.000 -0.000  0.000
 -0.000 -0.000  0.996  0.000  0.000
  0.000 -0.000  0.000  0.983 -0.000
 -0.000  0.000  0.000 -0.000  0.996
   spin  2
    eigenvalues:
  0.332  0.332  0.992  0.992  0.992
    eigenvectors:
  0.737  0.263  0.000  0.000  0.000
  0.000  0.000  0.009  0.658  0.333
  0.000  0.000  0.430  0.236  0.333
  0.263  0.737  0.000  0.000  0.000
  0.000  0.000  0.561  0.106  0.333
    occupations:
  0.332  0.001  0.001  0.000  0.001
  0.001  0.992  0.000  0.001 -0.000
  0.001  0.000  0.992 -0.001 -0.000
  0.000  0.001 -0.001  0.332 -0.000
  0.001 -0.000 -0.000 -0.000  0.992
atomic mag. moment =   1.31281
atom    2   Tr[ns(na)] (up, down, total) =   4.95331  3.64051  8.59382
   spin  1
    eigenvalues:
  0.983  0.983  0.996  0.996  0.996
    eigenvectors:
  0.250  0.750  0.000  0.000  0.000
  0.000  0.000  0.333  0.167  0.500
  0.000  0.000  0.334  0.666  0.000
  0.750  0.250  0.000  0.000  0.000
  0.000  0.000  0.333  0.167  0.500
    occupations:
  0.983 -0.000 -0.000  0.000 -0.000
 -0.000  0.996 -0.000 -0.000  0.000
 -0.000 -0.000  0.996  0.000  0.000
  0.000 -0.000  0.000  0.983  0.000
 -0.000  0.000  0.000  0.000  0.996
   spin  2
    eigenvalues:
  0.332  0.332  0.992  0.992  0.992
    eigenvectors:
  0.750  0.250  0.000  0.000  0.000
  0.000  0.000  0.500  0.167  0.333
  0.000  0.000  0.000  0.667  0.333
  0.250  0.750  0.000  0.000  0.000
  0.000  0.000  0.500  0.167  0.333
    occupations:
  0.332  0.001  0.001 -0.000  0.001
  0.001  0.992  0.000  0.001 -0.000
  0.001  0.000  0.992 -0.001 -0.000
 -0.000  0.001 -0.001  0.332 -0.000
  0.001 -0.000 -0.000 -0.000  0.992
atomic mag. moment =   1.31281
atom    3   Tr[ns(na)] (up, down, total) =   4.95331  3.64051  8.59382
   spin  1
    eigenvalues:
  0.983  0.983  0.996  0.996  0.996
    eigenvectors:
  0.250  0.750  0.000  0.000  0.000
  0.000  0.000  0.334  0.666  0.000
  0.000  0.000  0.333  0.167  0.500
  0.750  0.250  0.000  0.000  0.000
  0.000  0.000  0.333  0.167  0.500
    occupations:
  0.983 -0.000 -0.000 -0.000 -0.000
 -0.000  0.996 -0.000 -0.000  0.000
 -0.000 -0.000  0.996  0.000  0.000
 -0.000 -0.000  0.000  0.983 -0.000
 -0.000  0.000  0.000 -0.000  0.996
   spin  2
    eigenvalues:
  0.332  0.332  0.992  0.992  0.992
    eigenvectors:
  0.750  0.250  0.000  0.000  0.000
  0.000  0.000  0.000  0.667  0.333
  0.000  0.000  0.500  0.167  0.333
  0.250  0.750  0.000  0.000  0.000
  0.000  0.000  0.500  0.167  0.333
    occupations:
  0.332  0.001  0.001  0.000  0.001
  0.001  0.992  0.000  0.001 -0.000
  0.001  0.000  0.992 -0.001 -0.000
  0.000  0.001 -0.001  0.332  0.000
  0.001 -0.000 -0.000  0.000  0.992
atomic mag. moment =   1.31281
atom    4   Tr[ns(na)] (up, down, total) =   4.95331  3.64051  8.59382
   spin  1
    eigenvalues:
  0.983  0.983  0.996  0.996  0.996
    eigenvectors:
  1.000  0.000  0.000  0.000  0.000
  0.000  0.000  0.333  0.167  0.500
  0.000  0.000  0.333  0.167  0.500
  0.000  1.000  0.000  0.000  0.000
  0.000  0.000  0.334  0.666  0.000
    occupations:
  0.983 -0.000 -0.000  0.000 -0.000
 -0.000  0.996 -0.000 -0.000  0.000
 -0.000 -0.000  0.996  0.000  0.000
  0.000 -0.000  0.000  0.983 -0.000
 -0.000  0.000  0.000 -0.000  0.996
   spin  2
    eigenvalues:
  0.332  0.332  0.992  0.992  0.992
    eigenvectors:
  0.000  1.000  0.000  0.000  0.000
  0.000  0.000  0.500  0.167  0.333
  0.000  0.000  0.500  0.167  0.333
  1.000  0.000  0.000  0.000  0.000
  0.000  0.000  0.000  0.667  0.333
    occupations:
  0.332  0.001  0.001  0.000  0.001
  0.001  0.992  0.000  0.001 -0.000
  0.001  0.000  0.992 -0.001 -0.000
  0.000  0.001 -0.001  0.332 -0.000
  0.001 -0.000 -0.000 -0.000  0.992
atomic mag. moment =   1.31281
atom    5   Tr[ns(na)] (up, down, total) =   3.64051  4.95331  8.59382
   spin  1
    eigenvalues:
  0.332  0.332  0.992  0.992  0.992
    eigenvectors:
  0.000  1.000  0.000  0.000  0.000
  0.000  0.000  0.167  0.500  0.333
  0.000  0.000  0.167  0.500  0.333
  1.000  0.000  0.000  0.000  0.000
  0.000  0.000  0.667  0.000  0.333
    occupations:
  0.332  0.001  0.001  0.000  0.001
  0.001  0.992  0.000  0.001 -0.000
  0.001  0.000  0.992 -0.001 -0.000
  0.000  0.001 -0.001  0.332 -0.000
  0.001 -0.000 -0.000 -0.000  0.992
   spin  2
    eigenvalues:
  0.983  0.983  0.996  0.996  0.996
    eigenvectors:
  0.000  1.000  0.000  0.000  0.000
[...]
     atom:   10    charge:    5.6849    magn:   -0.0000    constr:    0.0000
     atom:   11    charge:    5.6854    magn:   -0.0011    constr:    0.0000
     atom:   12    charge:    5.6854    magn:   -0.0011    constr:    0.0000
     atom:   13    charge:    5.6854    magn:   -0.0011    constr:    0.0000
     atom:   14    charge:    5.6854    magn:   -0.0011    constr:    0.0000
     atom:   15    charge:    5.6849    magn:   -0.0000    constr:    0.0000
     atom:   16    charge:    5.6854    magn:   -0.0011    constr:    0.0000

     End of self-consistent calculation
 --- enter write_ns ---
 LDA+U parameters:
U( 1)     =  0.00000000
alpha( 1) =  0.10000000
U( 2)     =  0.00000000
U( 3)     =  0.00000000
U( 4)     =  0.00000000
atom    1   Tr[ns(na)] (up, down, total) =   4.95350  3.63090  8.58439
   spin  1
    eigenvalues:
  0.983  0.983  0.996  0.996  0.996
    eigenvectors:
  0.001  0.999  0.000  0.000  0.000
  0.000  0.000  0.333  0.019  0.648
  0.000  0.000  0.333  0.396  0.271
  0.999  0.001  0.000  0.000  0.000
  0.000  0.000  0.333  0.586  0.081
    occupations:
  0.983 -0.000 -0.000  0.000 -0.000
 -0.000  0.996 -0.000 -0.000  0.000
 -0.000 -0.000  0.996  0.000  0.000
  0.000 -0.000  0.000  0.983 -0.000
 -0.000  0.000  0.000 -0.000  0.996
   spin  2
    eigenvalues:
  0.327  0.327  0.992  0.992  0.992
    eigenvectors:
  0.034  0.966  0.000  0.000  0.000
  0.000  0.000  0.003  0.663  0.333
  0.000  0.000  0.458  0.209  0.333
  0.966  0.034  0.000  0.000  0.000
  0.000  0.000  0.539  0.128  0.333
    occupations:
  0.327  0.001  0.001  0.000  0.001
  0.001  0.992  0.000  0.001 -0.000
  0.001  0.000  0.992 -0.001 -0.000
  0.000  0.001 -0.001  0.327 -0.000
  0.001 -0.000 -0.000 -0.000  0.992
atomic mag. moment =   1.32260
atom    2   Tr[ns(na)] (up, down, total) =   4.95329  3.64066  8.59395
   spin  1
    eigenvalues:
  0.983  0.983  0.996  0.996  0.996
    eigenvectors:
  0.750  0.250  0.000  0.000  0.000
  0.000  0.000  0.307  0.500  0.193
  0.000  0.000  0.386  0.000  0.614
  0.250  0.750  0.000  0.000  0.000
  0.000  0.000  0.307  0.500  0.193
    occupations:
  0.983 -0.000 -0.000 -0.000 -0.000
 -0.000  0.996 -0.000 -0.000  0.000
 -0.000 -0.000  0.996  0.000  0.000
 -0.000 -0.000  0.000  0.983  0.000
 -0.000  0.000  0.000  0.000  0.996
   spin  2
    eigenvalues:
  0.332  0.332  0.992  0.992  0.992
    eigenvectors:
  0.750  0.250  0.000  0.000  0.000
  0.000  0.000  0.500  0.360  0.140
  0.000  0.000  0.000  0.280  0.720
  0.250  0.750  0.000  0.000  0.000
  0.000  0.000  0.500  0.360  0.140
    occupations:
  0.332  0.001  0.001 -0.000  0.001
  0.001  0.992  0.000  0.001 -0.000
  0.001  0.000  0.992 -0.001 -0.000
 -0.000  0.001 -0.001  0.332  0.000
  0.001 -0.000 -0.000  0.000  0.992
atomic mag. moment =   1.31264
atom    3   Tr[ns(na)] (up, down, total) =   4.95329  3.64066  8.59395
   spin  1
    eigenvalues:
  0.983  0.983  0.996  0.996  0.996
    eigenvectors:
  0.750  0.250  0.000  0.000  0.000
  0.000  0.000  0.386  0.000  0.614
  0.000  0.000  0.307  0.500  0.193
  0.250  0.750  0.000  0.000  0.000
  0.000  0.000  0.307  0.500  0.193
    occupations:
  0.983 -0.000 -0.000  0.000 -0.000
 -0.000  0.996 -0.000 -0.000  0.000
 -0.000 -0.000  0.996  0.000  0.000
  0.000 -0.000  0.000  0.983 -0.000
 -0.000  0.000  0.000 -0.000  0.996
   spin  2
    eigenvalues:
  0.332  0.332  0.992  0.992  0.992
    eigenvectors:
  0.750  0.250  0.000  0.000  0.000
  0.000  0.000  0.000  0.280  0.720
  0.000  0.000  0.500  0.360  0.140
  0.250  0.750  0.000  0.000  0.000
  0.000  0.000  0.500  0.360  0.140
    occupations:
  0.332  0.001  0.001  0.000  0.001
  0.001  0.992  0.000  0.001 -0.000
  0.001  0.000  0.992 -0.001 -0.000
  0.000  0.001 -0.001  0.332 -0.000
  0.001 -0.000 -0.000 -0.000  0.992
atomic mag. moment =   1.31264
atom    4   Tr[ns(na)] (up, down, total) =   4.95329  3.64066  8.59395
   spin  1
    eigenvalues:
  0.983  0.983  0.996  0.996  0.996
    eigenvectors:
  0.000  1.000  0.000  0.000  0.000
  0.000  0.000  0.307  0.500  0.193
  0.000  0.000  0.307  0.500  0.193
  1.000  0.000  0.000  0.000  0.000
  0.000  0.000  0.386  0.000  0.614
    occupations:
  0.983 -0.000 -0.000  0.000 -0.000
 -0.000  0.996 -0.000 -0.000  0.000
 -0.000 -0.000  0.996  0.000  0.000
  0.000 -0.000  0.000  0.983 -0.000
 -0.000  0.000  0.000 -0.000  0.996
   spin  2
    eigenvalues:
  0.332  0.332  0.992  0.992  0.992
    eigenvectors:
  0.000  1.000  0.000  0.000  0.000
  0.000  0.000  0.500  0.360  0.140
  0.000  0.000  0.500  0.360  0.140
  1.000  0.000  0.000  0.000  0.000
  0.000  0.000  0.000  0.280  0.720
    occupations:
  0.332  0.001  0.001  0.000  0.001
  0.001  0.992  0.000  0.001 -0.000
  0.001  0.000  0.992 -0.001 -0.000
  0.000  0.001 -0.001  0.332 -0.000
  0.001 -0.000 -0.000 -0.000  0.992
atomic mag. moment =   1.31264
atom    5   Tr[ns(na)] (up, down, total) =   3.64060  4.95334  8.59394
   spin  1
    eigenvalues:
  0.332  0.332  0.992  0.992  0.992
    eigenvectors:
  1.000  0.000  0.000  0.000  0.000
  0.000  0.000  0.500  0.181  0.319
  0.000  0.000  0.500  0.181  0.319
  0.000  1.000  0.000  0.000  0.000
  0.000  0.000  0.000  0.637  0.363
    occupations:
  0.332  0.001  0.001  0.000  0.001
  0.001  0.992  0.000  0.001 -0.000
  0.001  0.000  0.992 -0.001 -0.000
  0.000  0.001 -0.001  0.332 -0.000
  0.001 -0.000 -0.000 -0.000  0.992
   spin  2
    eigenvalues:
  0.983  0.983  0.996  0.996  0.996
    eigenvectors:
  0.000  1.000  0.000  0.000  0.000
  0.000  0.000  0.494  0.500  0.006
  0.000  0.000  0.494  0.500  0.006
  1.000  0.000  0.000  0.000  0.000
  0.000  0.000  0.012  0.000  0.988
    occupations:
  0.983 -0.000 -0.000  0.000 -0.000
 -0.000  0.996 -0.000 -0.000  0.000
 -0.000 -0.000  0.996  0.000  0.000
  0.000 -0.000  0.000  0.983 -0.000
 -0.000  0.000  0.000 -0.000  0.996
atomic mag. moment =  -1.31274
atom    6   Tr[ns(na)] (up, down, total) =   3.64060  4.95334  8.59394
   spin  1
    eigenvalues:
  0.332  0.332  0.992  0.992  0.992
    eigenvectors:
  0.250  0.750  0.000  0.000  0.000
  0.000  0.000  0.000  0.637  0.363
  0.000  0.000  0.500  0.181  0.319
  0.750  0.250  0.000  0.000  0.000
  0.000  0.000  0.500  0.181  0.319
    occupations:
  0.332  0.001  0.001 -0.000  0.001
  0.001  0.992  0.000  0.001 -0.000
  0.001  0.000  0.992 -0.001 -0.000
 -0.000  0.001 -0.001  0.332 -0.000
  0.001 -0.000 -0.000 -0.000  0.992
   spin  2
    eigenvalues:
  0.983  0.983  0.996  0.996  0.996
    eigenvectors:
  0.750  0.250  0.000  0.000  0.000
  0.000  0.000  0.012  0.000  0.988
  0.000  0.000  0.494  0.500  0.006
  0.250  0.750  0.000  0.000  0.000
  0.000  0.000  0.494  0.500  0.006
    occupations:
  0.983 -0.000 -0.000  0.000 -0.000
 -0.000  0.996 -0.000 -0.000  0.000
 -0.000 -0.000  0.996  0.000  0.000
  0.000 -0.000  0.000  0.983 -0.000
 -0.000  0.000  0.000 -0.000  0.996
atomic mag. moment =  -1.31274
atom    7   Tr[ns(na)] (up, down, total) =   3.64060  4.95334  8.59394
   spin  1
    eigenvalues:
  0.332  0.332  0.992  0.992  0.992
    eigenvectors:
  0.250  0.750  0.000  0.000  0.000
  0.000  0.000  0.500  0.181  0.319
  0.000  0.000  0.000  0.637  0.363
  0.750  0.250  0.000  0.000  0.000
  0.000  0.000  0.500  0.181  0.319
    occupations:
  0.332  0.001  0.001  0.000  0.001
  0.001  0.992  0.000  0.001 -0.000
  0.001  0.000  0.992 -0.001 -0.000
  0.000  0.001 -0.001  0.332  0.000
  0.001 -0.000 -0.000  0.000  0.992
   spin  2
    eigenvalues:
  0.983  0.983  0.996  0.996  0.996
    eigenvectors:
  0.750  0.250  0.000  0.000  0.000
  0.000  0.000  0.494  0.500  0.006
  0.000  0.000  0.012  0.000  0.988
  0.250  0.750  0.000  0.000  0.000
  0.000  0.000  0.494  0.500  0.006
    occupations:
  0.983 -0.000 -0.000 -0.000 -0.000
 -0.000  0.996 -0.000 -0.000  0.000
 -0.000 -0.000  0.996  0.000  0.000
 -0.000 -0.000  0.000  0.983  0.000
 -0.000  0.000  0.000  0.000  0.996
atomic mag. moment =  -1.31274
atom    8   Tr[ns(na)] (up, down, total) =   3.63943  4.95405  8.59348
   spin  1
    eigenvalues:
  0.332  0.332  0.992  0.992  0.992
    eigenvectors:
  0.002  0.998  0.000  0.000  0.000
  0.000  0.000  0.000  0.667  0.333
  0.000  0.000  0.493  0.174  0.333
  0.998  0.002  0.000  0.000  0.000
  0.000  0.000  0.507  0.160  0.333
    occupations:
  0.332  0.001  0.001  0.000  0.001
  0.001  0.992  0.000  0.001 -0.000
  0.001  0.000  0.992 -0.001 -0.000
  0.000  0.001 -0.001  0.332 -0.000
  0.001 -0.000 -0.000 -0.000  0.992
   spin  2
    eigenvalues:
  0.983  0.983  0.996  0.996  0.996
    eigenvectors:
  0.082  0.918  0.000  0.000  0.000
  0.000  0.000  0.333  0.000  0.666
  0.000  0.000  0.333  0.510  0.157
  0.918  0.082  0.000  0.000  0.000
  0.000  0.000  0.333  0.490  0.176
    occupations:
  0.983 -0.000 -0.000  0.000 -0.000
 -0.000  0.996 -0.000 -0.000  0.000
 -0.000 -0.000  0.996  0.000  0.000
  0.000 -0.000  0.000  0.983 -0.000
 -0.000  0.000  0.000 -0.000  0.996
atomic mag. moment =  -1.31462
atom    9   Tr[ns(na)] (up, down, total) =   2.76388  2.76478  5.52866
   spin  1
    eigenvalues:
  0.921  0.921  0.921
    eigenvectors:
  0.000  0.482  0.518
  0.500  0.259  0.241
  0.500  0.259  0.241
    occupations:
  0.921 -0.000 -0.000
 -0.000  0.921  0.000
 -0.000  0.000  0.921
   spin  2
    eigenvalues:
  0.921  0.921  0.922
    eigenvectors:
  0.000  0.017  0.983
  0.500  0.491  0.009
  0.500  0.491  0.009
    occupations:
  0.922 -0.000 -0.000
 -0.000  0.921  0.000
 -0.000  0.000  0.921
atomic mag. moment =  -0.00091
atom   10   Tr[ns(na)] (up, down, total) =   2.76392  2.76394  5.52786
   spin  1
    eigenvalues:
  0.921  0.921  0.921
    eigenvectors:
  0.500  0.167  0.333
  0.500  0.167  0.333
  0.000  0.667  0.333
    occupations:
  0.921 -0.000 -0.000
 -0.000  0.921  0.000
 -0.000  0.000  0.921
   spin  2
    eigenvalues:
  0.921  0.921  0.921
    eigenvectors:
  0.500  0.167  0.333
  0.500  0.167  0.333
  0.000  0.667  0.333
    occupations:
  0.921 -0.000 -0.000
 -0.000  0.921  0.000
 -0.000  0.000  0.921
atomic mag. moment =  -0.00002
atom   11   Tr[ns(na)] (up, down, total) =   2.76388  2.76478  5.52866
   spin  1
    eigenvalues:
  0.921  0.921  0.921
    eigenvectors:
  0.500  0.259  0.241
  0.500  0.259  0.241
  0.000  0.482  0.518
    occupations:
  0.921 -0.000 -0.000
 -0.000  0.921  0.000
 -0.000  0.000  0.921
   spin  2
    eigenvalues:
  0.921  0.921  0.922
    eigenvectors:
  0.500  0.491  0.009
  0.500  0.491  0.009
  0.000  0.017  0.983
    occupations:
  0.921 -0.000 -0.000
 -0.000  0.921  0.000
 -0.000  0.000  0.922
atomic mag. moment =  -0.00091
atom   12   Tr[ns(na)] (up, down, total) =   2.76388  2.76478  5.52866
   spin  1
    eigenvalues:
  0.921  0.921  0.921
    eigenvectors:
  0.500  0.259  0.241
  0.000  0.482  0.518
  0.500  0.259  0.241
    occupations:
  0.921 -0.000 -0.000
 -0.000  0.921  0.000
 -0.000  0.000  0.921
   spin  2
    eigenvalues:
  0.921  0.921  0.922
    eigenvectors:
  0.500  0.491  0.009
  0.000  0.017  0.983
  0.500  0.491  0.009
    occupations:
  0.921 -0.000 -0.000
 -0.000  0.922  0.000
 -0.000  0.000  0.921
atomic mag. moment =  -0.00091
atom   13   Tr[ns(na)] (up, down, total) =   2.76388  2.76478  5.52866
   spin  1
    eigenvalues:
  0.921  0.921  0.921
    eigenvectors:
  0.500  0.259  0.241
  0.500  0.259  0.241
  0.000  0.482  0.518
    occupations:
  0.921 -0.000 -0.000
 -0.000  0.921  0.000
 -0.000  0.000  0.921
   spin  2
    eigenvalues:
  0.921  0.921  0.922
    eigenvectors:
  0.500  0.491  0.009
  0.500  0.491  0.009
  0.000  0.017  0.983
    occupations:
  0.921 -0.000 -0.000
 -0.000  0.921  0.000
 -0.000  0.000  0.922
atomic mag. moment =  -0.00091
atom   14   Tr[ns(na)] (up, down, total) =   2.76388  2.76478  5.52866
   spin  1
    eigenvalues:
  0.921  0.921  0.921
    eigenvectors:
  0.500  0.259  0.241
  0.000  0.482  0.518
  0.500  0.259  0.241
    occupations:
  0.921 -0.000 -0.000
 -0.000  0.921  0.000
 -0.000  0.000  0.921
   spin  2
    eigenvalues:
  0.921  0.921  0.922
    eigenvectors:
  0.500  0.491  0.009
  0.000  0.017  0.983
  0.500  0.491  0.009
    occupations:
  0.921 -0.000 -0.000
 -0.000  0.922  0.000
 -0.000  0.000  0.921
atomic mag. moment =  -0.00091
atom   15   Tr[ns(na)] (up, down, total) =   2.76392  2.76394  5.52786
   spin  1
    eigenvalues:
  0.921  0.921  0.921
    eigenvectors:
  0.500  0.167  0.333
  0.500  0.167  0.333
  0.000  0.667  0.333
    occupations:
  0.921 -0.000 -0.000
 -0.000  0.921  0.000
 -0.000  0.000  0.921
   spin  2
    eigenvalues:
  0.921  0.921  0.921
    eigenvectors:
  0.546  0.121  0.333
  0.450  0.217  0.333
  0.005  0.662  0.333
    occupations:
  0.921 -0.000 -0.000
 -0.000  0.921  0.000
 -0.000  0.000  0.921
atomic mag. moment =  -0.00002
atom   16   Tr[ns(na)] (up, down, total) =   2.76388  2.76478  5.52866
   spin  1
    eigenvalues:
  0.921  0.921  0.921
    eigenvectors:
  0.000  0.482  0.518
  0.500  0.259  0.241
  0.500  0.259  0.241
    occupations:
  0.921 -0.000 -0.000
 -0.000  0.921  0.000
 -0.000  0.000  0.921
   spin  2
    eigenvalues:
  0.921  0.921  0.922
    eigenvectors:
  0.000  0.017  0.983
  0.500  0.491  0.009
  0.500  0.491  0.009
    occupations:
  0.922 -0.000 -0.000
 -0.000  0.921  0.000
 -0.000  0.000  0.921
atomic mag. moment =  -0.00091
N of occupied +U levels =  112.969218
 --- exit write_ns ---

 ------ SPIN UP ------------

          k = 0.0000 0.0000 0.0000 ( 11935 PWs)   bands (ev):

   -89.7880 -89.7107 -89.7096 -89.7096 -88.1039 -88.1025 -88.1025 -88.0991
   -50.2367 -50.2258 -50.2258 -50.1613 -50.1597 -50.1592 -50.1592 -50.1513
   -50.1513 -50.1423 -50.1382 -50.1382 -48.4255 -48.4241 -48.4241 -48.4171
   -48.4147 -48.4147 -48.4112 -48.4063 -48.4052 -48.4052 -48.3982 -48.3982
    -5.5085  -4.1102  -4.1096  -4.1095  -4.1095  -4.0510  -4.0469  -4.0469
     6.5723   6.5790   6.5790   6.5801   7.8649   7.8650   7.8650   9.0971
     9.0971   9.1039   9.1109   9.1109   9.1344   9.1416   9.1416  10.5122
    10.5122  10.5128  10.5133  10.5140  10.5140  11.4047  11.4047  11.4057
    11.8274  11.8274  11.8298  12.1457  12.1457  12.2779  12.4652  12.4652
    12.5279  12.5349  12.5349  12.8156  12.8156  12.8232  13.0723  13.0788
    13.0788  13.1886  13.1886  13.1895  13.5030  13.5030  13.6310  13.6319
    13.6319  13.7667  13.8547  13.8558  13.8558  13.9727  13.9727  13.9731
    16.1423  16.1423  16.2018  16.2023  16.2023  16.2834  16.2845  16.2845
    16.2919  20.2726  20.2744  20.2744  20.2763  20.9232  20.9335  20.9335
    24.7599  24.7647  24.7647  24.7650  25.2881  25.2882  25.2882  26.9369

[...]

          k =-0.2500-0.2500-0.2500 ( 11900 PWs)   bands (ev):

[...]

 ------ SPIN DOWN ----------

[...]

          k = 0.0000 0.0000-0.5000 ( 11854 PWs)   bands (ev):

[...]

          k =-0.2500-0.2500-0.2500 ( 11900 PWs)   bands (ev):

   -89.7113 -89.7098 -89.7098 -89.7086 -88.1695 -88.1036 -88.1023 -88.1023
   -50.1623 -50.1595 -50.1595 -50.1593 -50.1587 -50.1587 -50.1584 -50.1422
   -50.1418 -50.1418 -50.1358 -50.1358 -48.4802 -48.4780 -48.4780 -48.4248
   -48.4173 -48.4154 -48.4154 -48.4146 -48.4146 -48.4060 -48.4014 -48.4014
    -4.8757  -4.8711  -4.0992  -4.0992  -4.0983  -4.0778  -4.0752  -4.0752
     7.5574   7.5593   7.5593   7.6524   7.6585   7.6585   8.6294   8.6691
     8.8127   8.8127   8.8138   9.2471   9.2503   9.2503   9.3154   9.3154
     9.3158   9.5493   9.5493  10.0170  10.0232  10.0232  10.4448  10.4448
    12.0671  12.0671  12.0675  12.2514  12.2514  12.6932  12.7018  12.7021
    12.7021  13.0364  13.0364  13.0418  13.0876  13.0876  13.0876  13.3219
    13.3219  13.4268  13.4268  13.4275  13.4587  13.6404  13.6404  13.6408
    13.8351  13.8478  13.8478  13.8871  13.8871  13.9959  13.9959  14.0030
    15.6342  15.6393  15.6393  15.6541  15.6541  15.6627  15.6824  15.6824
    18.9482  19.0815  22.1674  22.1674  22.1686  22.3024  22.3113  22.3113
    24.4428  24.4428  24.4460  24.5612  24.5684  24.5684  26.3336  26.3396

     the Fermi energy is    14.5399 ev

!    total energy              =   -2948.14854732 Ry
     estimated scf accuracy    <          1.5E-09 Ry
     smearing contrib. (-TS)   =      -0.00000001 Ry
     internal energy E=F+TS    =   -2948.14854732 Ry

     The total energy is F=E-TS. E is the sum of the following terms:
     one-electron contribution =   -1497.17961613 Ry
     hartree contribution      =     868.77112125 Ry
     xc contribution           =    -409.99793158 Ry
     ewald contribution        =   -1909.80521500 Ry
     Hubbard energy            =       0.06309413 Ry

     total magnetization       =     0.00 Bohr mag/cell
     absolute magnetization    =    12.68 Bohr mag/cell

     convergence has been achieved in   8 iterations

     Writing output data file ./pwscf.save/

     General routines

     Parallel routines

     Hubbard U routines

   This run was terminated on:  14:24:37   8Sep2023

   JOB DONE.