     Program PWSCF v.6.6 starts on  8Sep2023 at 14:21:54

     K-points division:     npool     =       4
     R & G space division:  proc/nbgrp/npool/nimage =      14
     Fft bands division:     nmany     =       1
     Reading input from input.in
     Message from routine read_cards :
     DEPRECATED: no units specified in CELL_PARAMETERS card

     Current dimensions of program PWSCF are:
     Max number of different atomic species (ntypx) = 10
     Max number of k-points (npk) =  40000
     Max angular momentum in pseudopotentials (lmaxx) =  3
     Message from routine volume:
     axis vectors are left-handed

     Subspace diagonalization in iterative solution of the eigenvalue problem:
     a serial algorithm will be used

     Message from routine setup:
     using ibrav=0 with symmetry is DISCOURAGED, use correct ibrav instead

     bravais-lattice index     =            0
     lattice parameter (alat)  =       7.9000  a.u.
     unit-cell volume          =     986.0780 (a.u.)^3
     number of atoms/cell      =           16
     number of atomic types    =            4
     number of electrons       =       192.00
     number of Kohn-Sham states=          120
     kinetic-energy cutoff     =      80.0000  Ry
     charge density cutoff     =     320.0000  Ry
     convergence threshold     =      1.0E-08
     mixing beta               =       0.3000
     number of iterations used =            8  plain     mixing
     Exchange-correlation= PBE
                           (   1   4   3   4   0   0   0)

     celldm(1)=   7.900000  celldm(2)=   0.000000  celldm(3)=   0.000000
     celldm(4)=   0.000000  celldm(5)=   0.000000  celldm(6)=   0.000000

     crystal axes: (cart. coord. in units of alat)
               a(1) = (   1.000000   1.000000   0.000000 )
               a(2) = (   1.000000   0.000000   1.000000 )
               a(3) = (   0.000000   1.000000   1.000000 )

     reciprocal axes: (cart. coord. in units 2 pi/alat)
               b(1) = (  0.500000  0.500000 -0.500000 )
               b(2) = (  0.500000 -0.500000  0.500000 )
               b(3) = ( -0.500000  0.500000  0.500000 )

     PseudoPot. # 1 for Ni read from file:
     ../input/Ni_ONCV_PBE_fr.upf
     MD5 check sum: 1d6d985dc8681998a6b21bb9c8828dba
     Pseudo is Norm-conserving + core correction, Zval = 18.0
     Generated using ONCVPSP code by D. R. Hamann
     Using radial grid of 1372 points,  6 beta functions with:
                l(1) =   0
                l(2) =   0
                l(3) =   1
                l(4) =   1
                l(5) =   2
                l(6) =   2

[...]

     PseudoPot. # 3 for Ni read from file:
     ../input/Ni_ONCV_PBE_fr.upf
     MD5 check sum: 1d6d985dc8681998a6b21bb9c8828dba
     Pseudo is Norm-conserving + core correction, Zval = 18.0
     Generated using ONCVPSP code by D. R. Hamann
     Using radial grid of 1372 points,  6 beta functions with:
                l(1) =   0
                l(2) =   0
                l(3) =   1
                l(4) =   1
                l(5) =   2
                l(6) =   2

     PseudoPot. # 4 for O  read from file:
     ../input/O_ONCV_PBE_fr.upf
     MD5 check sum: cce762a7abf7b05e8b0c1bb572795511
     Pseudo is Norm-conserving + core correction, Zval =  6.0
     Generated using ONCVPSP code by D. R. Hamann
     Using radial grid of  936 points,  5 beta functions with:
                l(1) =   0
                l(2) =   0
                l(3) =   1
                l(4) =   1
                l(5) =   2

     atomic species   valence    mass     pseudopotential
        Ni1           18.00     1.00000     Ni( 1.00)
        Ni2           18.00     1.00000     Ni( 1.00)
        Ni3           18.00     1.00000     Ni( 1.00)
        O1             6.00     1.00000     O ( 1.00)

     Starting magnetic structure
     atomic species   magnetization
        Ni1          0.500
        Ni2          0.500
        Ni3         -0.500
        O1           0.000

     Simplified LDA+U calculation (l_max = 2) with parameters (eV):
     atomic species    L          U    alpha       J0     beta
        Ni1            2     0.0000   0.1000   0.0000   0.0000
        Ni2            2     0.0000   0.0000   0.0000   0.0000
        Ni3            2     0.0000   0.0000   0.0000   0.0000
        O1             1     0.0000   0.0000   0.0000   0.0000

     12 Sym. Ops., with inversion, found

   Cartesian axes

     site n.     atom                  positions (alat units)
         1           Ni1 tau(   1) = (   0.0000000   0.0000000   0.0000000  )
         2           Ni2 tau(   2) = (   1.0000000   0.5000000   0.5000000  )
         3           Ni2 tau(   3) = (   0.5000000   1.0000000   0.5000000  )
         4           Ni2 tau(   4) = (   0.5000000   0.5000000   1.0000000  )
         5           Ni3 tau(   5) = (   0.5000000   0.5000000   0.0000000  )
         6           Ni3 tau(   6) = (   0.5000000   0.0000000   0.5000000  )
         7           Ni3 tau(   7) = (   0.0000000   0.5000000   0.5000000  )
         8           Ni3 tau(   8) = (   1.0000000   1.0000000   1.0000000  )
         9           O1  tau(   9) = (   0.0000000   0.0000000   0.5000000  )
        10           O1  tau(  10) = (   0.5000000   0.5000000   0.5000000  )
        11           O1  tau(  11) = (   0.0000000   0.5000000   1.0000000  )
        12           O1  tau(  12) = (   0.5000000   0.0000000   1.0000000  )
        13           O1  tau(  13) = (   1.0000000   0.5000000   1.0000000  )
        14           O1  tau(  14) = (   0.5000000   1.0000000   1.0000000  )
        15           O1  tau(  15) = (   0.5000000   0.5000000   1.5000000  )
        16           O1  tau(  16) = (   1.0000000   1.0000000   1.5000000  )

     number of k points=     4  Gaussian smearing, width (Ry)=  0.0100
                       cart. coord. in units 2pi/alat
        k(    1) = (   0.0000000   0.0000000   0.0000000), wk =   0.1250000
        k(    2) = (   0.2500000  -0.2500000  -0.2500000), wk =   0.3750000
        k(    3) = (   0.0000000   0.0000000  -0.5000000), wk =   0.3750000
        k(    4) = (  -0.2500000  -0.2500000  -0.2500000), wk =   0.1250000

     Initial potential from superposition of free atoms

     starting charge  191.99819, renormalised to  192.00000
     Number of +U iterations with fixed ns =  0
     Starting occupations:
 --- enter write_ns ---
 LDA+U parameters:
U( 1)     =  0.00000000
alpha( 1) =  0.10000000
U( 2)     =  0.00000000
U( 3)     =  0.00000000
U( 4)     =  0.00000000
atom    1   Tr[ns(na)] (up, down, total) =   5.00000  3.00000  8.00000
   spin  1
    eigenvalues:
  1.000  1.000  1.000  1.000  1.000
    eigenvectors:
  1.000  0.000  0.000  0.000  0.000
  0.000  1.000  0.000  0.000  0.000
  0.000  0.000  1.000  0.000  0.000
  0.000  0.000  0.000  1.000  0.000
  0.000  0.000  0.000  0.000  1.000
    occupations:
  1.000  0.000  0.000  0.000  0.000
  0.000  1.000  0.000  0.000  0.000
  0.000  0.000  1.000  0.000  0.000
  0.000  0.000  0.000  1.000  0.000
  0.000  0.000  0.000  0.000  1.000
   spin  2
    eigenvalues:
  0.600  0.600  0.600  0.600  0.600
    eigenvectors:
  1.000  0.000  0.000  0.000  0.000
  0.000  1.000  0.000  0.000  0.000
  0.000  0.000  1.000  0.000  0.000
  0.000  0.000  0.000  1.000  0.000
  0.000  0.000  0.000  0.000  1.000
    occupations:
  0.600  0.000  0.000  0.000  0.000
  0.000  0.600  0.000  0.000  0.000
  0.000  0.000  0.600  0.000  0.000
  0.000  0.000  0.000  0.600  0.000
  0.000  0.000  0.000  0.000  0.600
atomic mag. moment =   2.00000
atom    2   Tr[ns(na)] (up, down, total) =   5.00000  3.00000  8.00000
   spin  1
    eigenvalues:
  1.000  1.000  1.000  1.000  1.000
    eigenvectors:
  1.000  0.000  0.000  0.000  0.000
  0.000  1.000  0.000  0.000  0.000
  0.000  0.000  1.000  0.000  0.000
  0.000  0.000  0.000  1.000  0.000
  0.000  0.000  0.000  0.000  1.000
    occupations:
  1.000  0.000  0.000  0.000  0.000
  0.000  1.000  0.000  0.000  0.000
  0.000  0.000  1.000  0.000  0.000
  0.000  0.000  0.000  1.000  0.000
  0.000  0.000  0.000  0.000  1.000
   spin  2
    eigenvalues:
  0.600  0.600  0.600  0.600  0.600
    eigenvectors:
  1.000  0.000  0.000  0.000  0.000
  0.000  1.000  0.000  0.000  0.000
  0.000  0.000  1.000  0.000  0.000
  0.000  0.000  0.000  1.000  0.000
  0.000  0.000  0.000  0.000  1.000
    occupations:
  0.600  0.000  0.000  0.000  0.000
  0.000  0.600  0.000  0.000  0.000
  0.000  0.000  0.600  0.000  0.000
  0.000  0.000  0.000  0.600  0.000
  0.000  0.000  0.000  0.000  0.600
atomic mag. moment =   2.00000
atom    3   Tr[ns(na)] (up, down, total) =   5.00000  3.00000  8.00000
   spin  1
    eigenvalues:
  1.000  1.000  1.000  1.000  1.000
    eigenvectors:
  1.000  0.000  0.000  0.000  0.000
  0.000  1.000  0.000  0.000  0.000
  0.000  0.000  1.000  0.000  0.000
  0.000  0.000  0.000  1.000  0.000
  0.000  0.000  0.000  0.000  1.000
    occupations:
  1.000  0.000  0.000  0.000  0.000
  0.000  1.000  0.000  0.000  0.000
  0.000  0.000  1.000  0.000  0.000
  0.000  0.000  0.000  1.000  0.000
  0.000  0.000  0.000  0.000  1.000
   spin  2
    eigenvalues:
  0.600  0.600  0.600  0.600  0.600
    eigenvectors:
  1.000  0.000  0.000  0.000  0.000
  0.000  1.000  0.000  0.000  0.000
  0.000  0.000  1.000  0.000  0.000
  0.000  0.000  0.000  1.000  0.000
  0.000  0.000  0.000  0.000  1.000
    occupations:
  0.600  0.000  0.000  0.000  0.000
  0.000  0.600  0.000  0.000  0.000
  0.000  0.000  0.600  0.000  0.000
  0.000  0.000  0.000  0.600  0.000
  0.000  0.000  0.000  0.000  0.600
atomic mag. moment =   2.00000
atom    4   Tr[ns(na)] (up, down, total) =   5.00000  3.00000  8.00000
   spin  1
    eigenvalues:
  1.000  1.000  1.000  1.000  1.000
    eigenvectors:
  1.000  0.000  0.000  0.000  0.000
  0.000  1.000  0.000  0.000  0.000
  0.000  0.000  1.000  0.000  0.000
  0.000  0.000  0.000  1.000  0.000
  0.000  0.000  0.000  0.000  1.000
    occupations:
  1.000  0.000  0.000  0.000  0.000
  0.000  1.000  0.000  0.000  0.000
  0.000  0.000  1.000  0.000  0.000
  0.000  0.000  0.000  1.000  0.000
  0.000  0.000  0.000  0.000  1.000
   spin  2
    eigenvalues:
  0.600  0.600  0.600  0.600  0.600
    eigenvectors:
  1.000  0.000  0.000  0.000  0.000
  0.000  1.000  0.000  0.000  0.000
  0.000  0.000  1.000  0.000  0.000
  0.000  0.000  0.000  1.000  0.000
  0.000  0.000  0.000  0.000  1.000
    occupations:
  0.600  0.000  0.000  0.000  0.000
  0.000  0.600  0.000  0.000  0.000
  0.000  0.000  0.600  0.000  0.000
  0.000  0.000  0.000  0.600  0.000
  0.000  0.000  0.000  0.000  0.600
atomic mag. moment =   2.00000
atom    5   Tr[ns(na)] (up, down, total) =   3.00000  5.00000  8.00000
   spin  1
    eigenvalues:
  0.600  0.600  0.600  0.600  0.600
    eigenvectors:
  1.000  0.000  0.000  0.000  0.000
  0.000  1.000  0.000  0.000  0.000
  0.000  0.000  1.000  0.000  0.000
  0.000  0.000  0.000  1.000  0.000
  0.000  0.000  0.000  0.000  1.000
    occupations:
  0.600  0.000  0.000  0.000  0.000
  0.000  0.600  0.000  0.000  0.000
  0.000  0.000  0.600  0.000  0.000
  0.000  0.000  0.000  0.600  0.000
  0.000  0.000  0.000  0.000  0.600
   spin  2
    eigenvalues:
  1.000  1.000  1.000  1.000  1.000
    eigenvectors:
[...]
     atom:   10    charge:    5.6849    magn:   -0.0000    constr:    0.0000
     atom:   11    charge:    5.6854    magn:   -0.0011    constr:    0.0000
     atom:   12    charge:    5.6854    magn:   -0.0011    constr:    0.0000
     atom:   13    charge:    5.6854    magn:   -0.0011    constr:    0.0000
     atom:   14    charge:    5.6854    magn:   -0.0011    constr:    0.0000
     atom:   15    charge:    5.6849    magn:   -0.0000    constr:    0.0000
     atom:   16    charge:    5.6854    magn:   -0.0011    constr:    0.0000

     End of self-consistent calculation
 --- enter write_ns ---
 LDA+U parameters:
U( 1)     =  0.00000000
alpha( 1) =  0.10000000
U( 2)     =  0.00000000
U( 3)     =  0.00000000
U( 4)     =  0.00000000
atom    1   Tr[ns(na)] (up, down, total) =   4.95351  3.63086  8.58437
   spin  1
    eigenvalues:
  0.983  0.983  0.996  0.996  0.996
    eigenvectors:
  0.003  0.997  0.000  0.000  0.000
  0.000  0.000  0.333  0.014  0.653
  0.000  0.000  0.333  0.411  0.256
  0.997  0.003  0.000  0.000  0.000
  0.000  0.000  0.333  0.576  0.091
    occupations:
  0.983 -0.000 -0.000  0.000 -0.000
 -0.000  0.996 -0.000 -0.000  0.000
 -0.000 -0.000  0.996  0.000  0.000
  0.000 -0.000  0.000  0.983 -0.000
 -0.000  0.000  0.000 -0.000  0.996
   spin  2
    eigenvalues:
  0.327  0.327  0.992  0.992  0.992
    eigenvectors:
  0.030  0.970  0.000  0.000  0.000
  0.000  0.000  0.000  0.667  0.333
  0.000  0.000  0.504  0.163  0.333
  0.970  0.030  0.000  0.000  0.000
  0.000  0.000  0.496  0.171  0.333
    occupations:
  0.327  0.001  0.001  0.000  0.001
  0.001  0.992  0.000  0.001 -0.000
  0.001  0.000  0.992 -0.001 -0.000
  0.000  0.001 -0.001  0.327 -0.000
  0.001 -0.000 -0.000 -0.000  0.992
atomic mag. moment =   1.32265
atom    2   Tr[ns(na)] (up, down, total) =   4.95329  3.64066  8.59395
   spin  1
    eigenvalues:
  0.983  0.983  0.996  0.996  0.996
    eigenvectors:
  0.750  0.250  0.000  0.000  0.000
  0.000  0.000  0.308  0.500  0.192
  0.000  0.000  0.385  0.000  0.615
  0.250  0.750  0.000  0.000  0.000
  0.000  0.000  0.308  0.500  0.192
    occupations:
  0.983 -0.000 -0.000 -0.000 -0.000
 -0.000  0.996 -0.000 -0.000  0.000
 -0.000 -0.000  0.996  0.000  0.000
 -0.000 -0.000  0.000  0.983  0.000
 -0.000  0.000  0.000  0.000  0.996
   spin  2
    eigenvalues:
  0.332  0.332  0.992  0.992  0.992
    eigenvectors:
  0.750  0.250  0.000  0.000  0.000
  0.000  0.000  0.500  0.360  0.140
  0.000  0.000  0.000  0.279  0.721
  0.250  0.750  0.000  0.000  0.000
  0.000  0.000  0.500  0.360  0.140
    occupations:
  0.332  0.001  0.001 -0.000  0.001
  0.001  0.992  0.000  0.001 -0.000
  0.001  0.000  0.992 -0.001 -0.000
 -0.000  0.001 -0.001  0.332  0.000
  0.001 -0.000 -0.000  0.000  0.992
atomic mag. moment =   1.31263
atom    3   Tr[ns(na)] (up, down, total) =   4.95329  3.64066  8.59395
   spin  1
    eigenvalues:
  0.983  0.983  0.996  0.996  0.996
    eigenvectors:
  0.750  0.250  0.000  0.000  0.000
  0.000  0.000  0.385  0.000  0.615
  0.000  0.000  0.308  0.500  0.192
  0.250  0.750  0.000  0.000  0.000
  0.000  0.000  0.308  0.500  0.192
    occupations:
  0.983 -0.000 -0.000  0.000 -0.000
 -0.000  0.996 -0.000 -0.000  0.000
 -0.000 -0.000  0.996  0.000  0.000
  0.000 -0.000  0.000  0.983 -0.000
 -0.000  0.000  0.000 -0.000  0.996
   spin  2
    eigenvalues:
  0.332  0.332  0.992  0.992  0.992
    eigenvectors:
  0.750  0.250  0.000  0.000  0.000
  0.000  0.000  0.000  0.279  0.721
  0.000  0.000  0.500  0.360  0.140
  0.250  0.750  0.000  0.000  0.000
  0.000  0.000  0.500  0.360  0.140
    occupations:
  0.332  0.001  0.001  0.000  0.001
  0.001  0.992  0.000  0.001 -0.000
  0.001  0.000  0.992 -0.001 -0.000
  0.000  0.001 -0.001  0.332 -0.000
  0.001 -0.000 -0.000 -0.000  0.992
atomic mag. moment =   1.31263
atom    4   Tr[ns(na)] (up, down, total) =   4.95329  3.64066  8.59395
   spin  1
    eigenvalues:
  0.983  0.983  0.996  0.996  0.996
    eigenvectors:
  0.000  1.000  0.000  0.000  0.000
  0.000  0.000  0.308  0.500  0.192
  0.000  0.000  0.308  0.500  0.192
  1.000  0.000  0.000  0.000  0.000
  0.000  0.000  0.385  0.000  0.615
    occupations:
  0.983 -0.000 -0.000  0.000 -0.000
 -0.000  0.996 -0.000 -0.000  0.000
 -0.000 -0.000  0.996  0.000  0.000
  0.000 -0.000  0.000  0.983 -0.000
 -0.000  0.000  0.000 -0.000  0.996
   spin  2
    eigenvalues:
  0.332  0.332  0.992  0.992  0.992
    eigenvectors:
  0.000  1.000  0.000  0.000  0.000
  0.000  0.000  0.500  0.360  0.140
  0.000  0.000  0.500  0.360  0.140
  1.000  0.000  0.000  0.000  0.000
  0.000  0.000  0.000  0.279  0.721
    occupations:
  0.332  0.001  0.001  0.000  0.001
  0.001  0.992  0.000  0.001 -0.000
  0.001  0.000  0.992 -0.001 -0.000
  0.000  0.001 -0.001  0.332 -0.000
  0.001 -0.000 -0.000 -0.000  0.992
atomic mag. moment =   1.31263
atom    5   Tr[ns(na)] (up, down, total) =   3.64061  4.95334  8.59395
   spin  1
    eigenvalues:
  0.332  0.332  0.992  0.992  0.992
    eigenvectors:
  1.000  0.000  0.000  0.000  0.000
  0.000  0.000  0.500  0.182  0.318
  0.000  0.000  0.500  0.182  0.318
  0.000  1.000  0.000  0.000  0.000
  0.000  0.000  0.000  0.636  0.364
    occupations:
  0.332  0.001  0.001  0.000  0.001
  0.001  0.992  0.000  0.001 -0.000
  0.001  0.000  0.992 -0.001 -0.000
  0.000  0.001 -0.001  0.332 -0.000
  0.001 -0.000 -0.000 -0.000  0.992
   spin  2
    eigenvalues:
  0.983  0.983  0.996  0.996  0.996
    eigenvectors:
  0.000  1.000  0.000  0.000  0.000
  0.000  0.000  0.494  0.500  0.006
  0.000  0.000  0.494  0.500  0.006
  1.000  0.000  0.000  0.000  0.000
  0.000  0.000  0.012  0.000  0.988
    occupations:
  0.983 -0.000 -0.000  0.000 -0.000
 -0.000  0.996 -0.000 -0.000  0.000
 -0.000 -0.000  0.996  0.000  0.000
  0.000 -0.000  0.000  0.983 -0.000
 -0.000  0.000  0.000 -0.000  0.996
atomic mag. moment =  -1.31273
atom    6   Tr[ns(na)] (up, down, total) =   3.64061  4.95334  8.59395
   spin  1
    eigenvalues:
  0.332  0.332  0.992  0.992  0.992
    eigenvectors:
  0.250  0.750  0.000  0.000  0.000
  0.000  0.000  0.000  0.636  0.364
  0.000  0.000  0.500  0.182  0.318
  0.750  0.250  0.000  0.000  0.000
  0.000  0.000  0.500  0.182  0.318
    occupations:
  0.332  0.001  0.001 -0.000  0.001
  0.001  0.992  0.000  0.001 -0.000
  0.001  0.000  0.992 -0.001 -0.000
 -0.000  0.001 -0.001  0.332 -0.000
  0.001 -0.000 -0.000 -0.000  0.992
   spin  2
    eigenvalues:
  0.983  0.983  0.996  0.996  0.996
    eigenvectors:
  0.750  0.250  0.000  0.000  0.000
  0.000  0.000  0.012  0.000  0.988
  0.000  0.000  0.494  0.500  0.006
  0.250  0.750  0.000  0.000  0.000
  0.000  0.000  0.494  0.500  0.006
    occupations:
  0.983 -0.000 -0.000  0.000 -0.000
 -0.000  0.996 -0.000 -0.000  0.000
 -0.000 -0.000  0.996  0.000  0.000
  0.000 -0.000  0.000  0.983 -0.000
 -0.000  0.000  0.000 -0.000  0.996
atomic mag. moment =  -1.31273
atom    7   Tr[ns(na)] (up, down, total) =   3.64061  4.95334  8.59395
   spin  1
    eigenvalues:
  0.332  0.332  0.992  0.992  0.992
    eigenvectors:
  0.250  0.750  0.000  0.000  0.000
  0.000  0.000  0.500  0.182  0.318
  0.000  0.000  0.000  0.636  0.364
  0.750  0.250  0.000  0.000  0.000
  0.000  0.000  0.500  0.182  0.318
    occupations:
  0.332  0.001  0.001  0.000  0.001
  0.001  0.992  0.000  0.001 -0.000
  0.001  0.000  0.992 -0.001 -0.000
  0.000  0.001 -0.001  0.332  0.000
  0.001 -0.000 -0.000  0.000  0.992
   spin  2
    eigenvalues:
  0.983  0.983  0.996  0.996  0.996
    eigenvectors:
  0.750  0.250  0.000  0.000  0.000
  0.000  0.000  0.494  0.500  0.006
  0.000  0.000  0.012  0.000  0.988
  0.250  0.750  0.000  0.000  0.000
  0.000  0.000  0.494  0.500  0.006
    occupations:
  0.983 -0.000 -0.000 -0.000 -0.000
 -0.000  0.996 -0.000 -0.000  0.000
 -0.000 -0.000  0.996  0.000  0.000
 -0.000 -0.000  0.000  0.983  0.000
 -0.000  0.000  0.000  0.000  0.996
atomic mag. moment =  -1.31273
atom    8   Tr[ns(na)] (up, down, total) =   3.63942  4.95406  8.59347
   spin  1
    eigenvalues:
  0.332  0.332  0.992  0.992  0.992
    eigenvectors:
  0.024  0.976  0.000  0.000  0.000
  0.000  0.000  0.000  0.666  0.333
  0.000  0.000  0.510  0.157  0.333
  0.976  0.024  0.000  0.000  0.000
  0.000  0.000  0.490  0.177  0.333
    occupations:
  0.332  0.001  0.001  0.000  0.001
  0.001  0.992  0.000  0.001 -0.000
  0.001  0.000  0.992 -0.001 -0.000
  0.000  0.001 -0.001  0.332 -0.000
  0.001 -0.000 -0.000 -0.000  0.992
   spin  2
    eigenvalues:
  0.983  0.983  0.996  0.996  0.996
    eigenvectors:
  0.007  0.993  0.000  0.000  0.000
  0.000  0.000  0.333  0.000  0.666
  0.000  0.000  0.333  0.490  0.177
  0.993  0.007  0.000  0.000  0.000
  0.000  0.000  0.333  0.510  0.156
    occupations:
  0.983 -0.000 -0.000  0.000 -0.000
 -0.000  0.996 -0.000 -0.000  0.000
 -0.000 -0.000  0.996  0.000  0.000
  0.000 -0.000  0.000  0.983 -0.000
 -0.000  0.000  0.000 -0.000  0.996
atomic mag. moment =  -1.31464
atom    9   Tr[ns(na)] (up, down, total) =   2.76387  2.76479  5.52866
   spin  1
    eigenvalues:
  0.921  0.921  0.921
    eigenvectors:
  0.000  0.476  0.524
  0.500  0.262  0.238
  0.500  0.262  0.238
    occupations:
  0.921 -0.000 -0.000
 -0.000  0.921  0.000
 -0.000  0.000  0.921
   spin  2
    eigenvalues:
  0.921  0.921  0.922
    eigenvectors:
  0.000  0.017  0.983
  0.500  0.491  0.009
  0.500  0.491  0.009
    occupations:
  0.922 -0.000 -0.000
 -0.000  0.921  0.000
 -0.000  0.000  0.921
atomic mag. moment =  -0.00091
atom   10   Tr[ns(na)] (up, down, total) =   2.76391  2.76395  5.52786
   spin  1
    eigenvalues:
  0.921  0.921  0.921
    eigenvectors:
  0.500  0.167  0.333
  0.500  0.167  0.333
  0.000  0.667  0.333
    occupations:
  0.921 -0.000 -0.000
 -0.000  0.921  0.000
 -0.000  0.000  0.921
   spin  2
    eigenvalues:
  0.921  0.921  0.921
    eigenvectors:
  0.598  0.068  0.333
  0.376  0.291  0.333
  0.026  0.641  0.333
    occupations:
  0.921 -0.000 -0.000
 -0.000  0.921  0.000
 -0.000  0.000  0.921
atomic mag. moment =  -0.00003
atom   11   Tr[ns(na)] (up, down, total) =   2.76387  2.76479  5.52866
   spin  1
    eigenvalues:
  0.921  0.921  0.921
    eigenvectors:
  0.500  0.262  0.238
  0.500  0.262  0.238
  0.000  0.476  0.524
    occupations:
  0.921 -0.000 -0.000
 -0.000  0.921  0.000
 -0.000  0.000  0.921
   spin  2
    eigenvalues:
  0.921  0.921  0.922
    eigenvectors:
  0.500  0.491  0.009
  0.500  0.491  0.009
  0.000  0.017  0.983
    occupations:
  0.921 -0.000 -0.000
 -0.000  0.921  0.000
 -0.000  0.000  0.922
atomic mag. moment =  -0.00091
atom   12   Tr[ns(na)] (up, down, total) =   2.76387  2.76479  5.52866
   spin  1
    eigenvalues:
  0.921  0.921  0.921
    eigenvectors:
  0.500  0.262  0.238
  0.000  0.476  0.524
  0.500  0.262  0.238
    occupations:
  0.921 -0.000 -0.000
 -0.000  0.921  0.000
 -0.000  0.000  0.921
   spin  2
    eigenvalues:
  0.921  0.921  0.922
    eigenvectors:
  0.500  0.491  0.009
  0.000  0.017  0.983
  0.500  0.491  0.009
    occupations:
  0.921 -0.000 -0.000
 -0.000  0.922  0.000
 -0.000  0.000  0.921
atomic mag. moment =  -0.00091
atom   13   Tr[ns(na)] (up, down, total) =   2.76387  2.76479  5.52866
   spin  1
    eigenvalues:
  0.921  0.921  0.921
    eigenvectors:
  0.500  0.262  0.238
  0.500  0.262  0.238
  0.000  0.476  0.524
    occupations:
  0.921 -0.000 -0.000
 -0.000  0.921  0.000
 -0.000  0.000  0.921
   spin  2
    eigenvalues:
  0.921  0.921  0.922
    eigenvectors:
  0.500  0.491  0.009
  0.500  0.491  0.009
  0.000  0.017  0.983
    occupations:
  0.921 -0.000 -0.000
 -0.000  0.921  0.000
 -0.000  0.000  0.922
atomic mag. moment =  -0.00091
atom   14   Tr[ns(na)] (up, down, total) =   2.76387  2.76479  5.52866
   spin  1
    eigenvalues:
  0.921  0.921  0.921
    eigenvectors:
  0.500  0.262  0.238
  0.000  0.476  0.524
  0.500  0.262  0.238
    occupations:
  0.921 -0.000 -0.000
 -0.000  0.921  0.000
 -0.000  0.000  0.921
   spin  2
    eigenvalues:
  0.921  0.921  0.922
    eigenvectors:
  0.500  0.491  0.009
  0.000  0.017  0.983
  0.500  0.491  0.009
    occupations:
  0.921 -0.000 -0.000
 -0.000  0.922  0.000
 -0.000  0.000  0.921
atomic mag. moment =  -0.00091
atom   15   Tr[ns(na)] (up, down, total) =   2.76391  2.76395  5.52786
   spin  1
    eigenvalues:
  0.921  0.921  0.921
    eigenvectors:
  0.549  0.118  0.333
  0.446  0.220  0.333
  0.005  0.661  0.333
    occupations:
  0.921 -0.000 -0.000
 -0.000  0.921  0.000
 -0.000  0.000  0.921
   spin  2
    eigenvalues:
  0.921  0.921  0.921
    eigenvectors:
  0.539  0.128  0.333
  0.458  0.209  0.333
  0.003  0.663  0.333
    occupations:
  0.921 -0.000 -0.000
 -0.000  0.921  0.000
 -0.000  0.000  0.921
atomic mag. moment =  -0.00003
atom   16   Tr[ns(na)] (up, down, total) =   2.76387  2.76479  5.52866
   spin  1
    eigenvalues:
  0.921  0.921  0.921
    eigenvectors:
  0.000  0.476  0.524
  0.500  0.262  0.238
  0.500  0.262  0.238
    occupations:
  0.921 -0.000 -0.000
 -0.000  0.921  0.000
 -0.000  0.000  0.921
   spin  2
    eigenvalues:
  0.921  0.921  0.922
    eigenvectors:
  0.000  0.017  0.983
  0.500  0.491  0.009
  0.500  0.491  0.009
    occupations:
  0.922 -0.000 -0.000
 -0.000  0.921  0.000
 -0.000  0.000  0.921
atomic mag. moment =  -0.00091
N of occupied +U levels =  112.969226
 --- exit write_ns ---

 ------ SPIN UP ------------

          k = 0.0000 0.0000 0.0000 ( 11935 PWs)   bands (ev):

   -89.7881 -89.7107 -89.7095 -89.7095 -88.1039 -88.1026 -88.1026 -88.0991
   -50.2368 -50.2260 -50.2260 -50.1613 -50.1597 -50.1592 -50.1592 -50.1513
   -50.1513 -50.1423 -50.1382 -50.1382 -48.4255 -48.4242 -48.4242 -48.4171
   -48.4147 -48.4147 -48.4112 -48.4063 -48.4052 -48.4052 -48.3982 -48.3982
    -5.5085  -4.1101  -4.1096  -4.1095  -4.1095  -4.0510  -4.0469  -4.0469
     6.5723   6.5789   6.5789   6.5801   7.8649   7.8650   7.8650   9.0971
     9.0971   9.1040   9.1109   9.1109   9.1344   9.1416   9.1416  10.5122
    10.5122  10.5128  10.5134  10.5140  10.5140  11.4047  11.4047  11.4057
    11.8274  11.8274  11.8298  12.1457  12.1457  12.2778  12.4651  12.4651
    12.5279  12.5348  12.5348  12.8156  12.8156  12.8231  13.0723  13.0788
    13.0788  13.1886  13.1886  13.1895  13.5030  13.5030  13.6310  13.6319
    13.6319  13.7667  13.8548  13.8558  13.8558  13.9727  13.9727  13.9732
    16.1423  16.1423  16.2017  16.2023  16.2023  16.2834  16.2845  16.2845
    16.2918  20.2726  20.2743  20.2743  20.2763  20.9232  20.9335  20.9335
    24.7599  24.7647  24.7647  24.7650  25.2881  25.2882  25.2882  26.9369

[...]

          k =-0.2500-0.2500-0.2500 ( 11900 PWs)   bands (ev):

[...]

 ------ SPIN DOWN ----------

[...]

          k = 0.0000 0.0000-0.5000 ( 11854 PWs)   bands (ev):

[...]

          k =-0.2500-0.2500-0.2500 ( 11900 PWs)   bands (ev):

   -89.7112 -89.7098 -89.7098 -89.7086 -88.1694 -88.1036 -88.1023 -88.1023
   -50.1623 -50.1594 -50.1594 -50.1592 -50.1587 -50.1587 -50.1584 -50.1421
   -50.1418 -50.1418 -50.1357 -50.1357 -48.4801 -48.4779 -48.4779 -48.4249
   -48.4173 -48.4154 -48.4154 -48.4147 -48.4147 -48.4060 -48.4014 -48.4014
    -4.8758  -4.8712  -4.0992  -4.0992  -4.0983  -4.0779  -4.0752  -4.0752
     7.5574   7.5593   7.5593   7.6524   7.6585   7.6585   8.6294   8.6690
     8.8126   8.8126   8.8138   9.2471   9.2503   9.2503   9.3154   9.3154
     9.3159   9.5493   9.5493  10.0170  10.0232  10.0232  10.4447  10.4447
    12.0672  12.0672  12.0675  12.2514  12.2514  12.6932  12.7019  12.7021
    12.7021  13.0364  13.0364  13.0418  13.0876  13.0876  13.0876  13.3219
    13.3219  13.4268  13.4268  13.4276  13.4587  13.6404  13.6404  13.6408
    13.8350  13.8478  13.8478  13.8871  13.8871  13.9958  13.9958  14.0030
    15.6342  15.6393  15.6393  15.6541  15.6541  15.6627  15.6826  15.6826
    18.9482  19.0815  22.1674  22.1674  22.1686  22.3024  22.3113  22.3113
    24.4428  24.4428  24.4461  24.5612  24.5684  24.5684  26.3327  26.3396

     the Fermi energy is    14.5399 ev

!    total energy              =   -2948.14854732 Ry
     estimated scf accuracy    <          4.9E-09 Ry
     smearing contrib. (-TS)   =      -0.00000001 Ry
     internal energy E=F+TS    =   -2948.14854732 Ry

     The total energy is F=E-TS. E is the sum of the following terms:
     one-electron contribution =   -1497.17964359 Ry
     hartree contribution      =     868.77119895 Ry
     xc contribution           =    -409.99798161 Ry
     ewald contribution        =   -1909.80521500 Ry
     Hubbard energy            =       0.06309393 Ry

     total magnetization       =     0.00 Bohr mag/cell
     absolute magnetization    =    12.68 Bohr mag/cell

     convergence has been achieved in  21 iterations

     Writing output data file ./pwscf.save/

     General routines

     Parallel routines

     Hubbard U routines

   This run was terminated on:  14:22: 6   8Sep2023

   JOB DONE.